167
0 101 104 134 17 140 126 76 130 69 
74 159 9 115 165 162 11 71 28 37 
36 119 67 6 41 151 63 157 114 42 
21 1 166 136 58 60 127 79 70 56 
84 150 19 138 95 144 118 155 80 103 
94 51 23 52 110 120 55 39 131 65 
106 132 135 163 90 161 77 25 57 146 
89 93 26 38 75 82 73 124 139 33 
53 85 34 113 111 147 45 112 22 40 
12 31 158 8 16 154 116 10 108 13 
87 102 83 81 86 72 14 66 54 96 
164 156 88 143 50 46 129 123 68 5 
64 18 149 29 20 148 49 44 122 107 
91 117 3 61 109 99 78 160 30 24 
43 141 32 59 128 2 142 35 15 98 
100 121 4 27 153 92 145 47 137 97 
133 125 48 105 7 152 62 
